certificates/rado_a11_c249_N29.cnf
c Rad2 upper bound instance: x1 + 11*x2 - x3 = 249, interval [1,29]
p cnf 29 148
1 5 23 0
-1 -5 -23 0
1 16 24 0
-1 -16 -24 0
1 25 27 0
-1 -25 -27 0
2 6 23 0
-2 -6 -23 0
2 17 24 0
-2 -17 -24 0
2 25 28 0
-2 -25 -28 0
3 7 23 0
-3 -7 -23 0
3 18 24 0
-3 -18 -24 0
3 25 29 0
-3 -25 -29 0
4 8 23 0
-4 -8 -23 0
4 19 24 0
-4 -19 -24 0
5 9 23 0
-5 -9 -23 0
5 20 24 0
-5 -20 -24 0
6 10 23 0
-6 -10 -23 0
6 21 24 0
-6 -21 -24 0
7 11 23 0
-7 -11 -23 0
7 22 24 0
-7 -22 -24 0
1 8 22 0
-1 -8 -22 0
8 12 23 0
-8 -12 -23 0
8 23 24 0
-8 -23 -24 0
2 9 22 0
-2 -9 -22 0
9 13 23 0
-9 -13 -23 0
9 24 0
-9 -24 0
3 10 22 0
-3 -10 -22 0
10 14 23 0
-10 -14 -23 0
10 24 25 0
-10 -24 -25 0
4 11 22 0
-4 -11 -22 0
11 15 23 0
-11 -15 -23 0
11 24 26 0
-11 -24 -26 0
5 12 22 0
-5 -12 -22 0
12 16 23 0
-12 -16 -23 0
12 24 27 0
-12 -24 -27 0
6 13 22 0
-6 -13 -22 0
13 17 23 0
-13 -17 -23 0
13 24 28 0
-13 -24 -28 0
7 14 22 0
-7 -14 -22 0
14 18 23 0
-14 -18 -23 0
14 24 29 0
-14 -24 -29 0
8 15 22 0
-8 -15 -22 0
15 19 23 0
-15 -19 -23 0
9 16 22 0
-9 -16 -22 0
16 20 23 0
-16 -20 -23 0
10 17 22 0
-10 -17 -22 0
17 21 23 0
-17 -21 -23 0
11 18 22 0
-11 -18 -22 0
18 22 23 0
-18 -22 -23 0
1 19 21 0
-1 -19 -21 0
12 19 22 0
-12 -19 -22 0
19 23 0
-19 -23 0
2 20 21 0
-2 -20 -21 0
13 20 22 0
-13 -20 -22 0
20 23 24 0
-20 -23 -24 0
3 21 0
-3 -21 0
14 21 22 0
-14 -21 -22 0
21 23 25 0
-21 -23 -25 0
4 21 22 0
-4 -21 -22 0
15 22 0
-15 -22 0
22 23 26 0
-22 -23 -26 0
5 21 23 0
-5 -21 -23 0
16 22 23 0
-16 -22 -23 0
23 27 0
-23 -27 0
17 22 24 0
-17 -22 -24 0
23 24 28 0
-23 -24 -28 0
7 21 25 0
-7 -21 -25 0
18 22 25 0
-18 -22 -25 0
23 25 29 0
-23 -25 -29 0
8 21 26 0
-8 -21 -26 0
19 22 26 0
-19 -22 -26 0
9 21 27 0
-9 -21 -27 0
20 22 27 0
-20 -22 -27 0
10 21 28 0
-10 -21 -28 0
21 22 28 0
-21 -22 -28 0
11 21 29 0
-11 -21 -29 0
22 29 0
-22 -29 0
