certificates/rado_a11_c249_N29.drat
-25 -27 -29 0
-21 -28 22 0
21 -29 0
23 -29 0
-29 0
22 0
-15 0
-21 -23 0
21 28 0
-21 0
3 0
11 0
28 0
-10 0
-4 0
-18 0
23 0
-19 0
-27 0
-26 0
-16 0
-24 0
-7 0
1 0
0
